\ENCODING=ISO-8859-1
\Problem name: ilog.cplex

Minimize
 obj1: 92969 x1 + 107828 x2 + 107760 x3 + 92894 x4 + 92193 x5 + 101892 x6
       + 97153 x7 + 104813 x8 + 93486 x9 + 95701 x10 + 106973 x11 + 108595 x12
       + 95048 x13 + 105108 x14 + 98706 x15 + 94069 x16 + 105012 x17
       + 94287 x18 + 96999 x19 + 109899 x20 + 96509 x21 + 102692 x22
       + 92558 x23 + 101299 x24 + 91599 x25 + 107731 x26 + 98183 x27
       + 96901 x28 + 104043 x29 + 94807 x30 + 102778 x31 + 101031 x32
       + 95806 x33 + 106969 x34 + 105882 x35 + 93577 x36 + 97622 x37
       + 102743 x38 + 93539 x39 + 91258 x40 + 90101 x41 + 102553 x42
       + 95272 x43 + 101269 x44 + 98570 x45 + 91703 x46 + 101459 x47
       + 101122 x48 + 102226 x49 + 91014 x50 + 100603 x51 + 106987 x52
       + 96148 x53 + 104981 x54 + 96783 x55 + 106870 x56 + 93339 x57
       + 91719 x58 + 108973 x59 + 94710 x60 + 106803 x61 + 92770 x62
       + 96162 x63 + 93702 x64 + 92899 x65 + 97276 x66 + 93521 x67 + 93586 x68
       + 90916 x69 + 98227 x70 + 96658 x71 + 97392 x72 + 96433 x73 + 108310 x74
       + 96908 x75 + 105031 x76 + 105921 x77 + 95254 x78 + 106384 x79
       + 99735 x80 + 106160 x81 + 99581 x82 + 90185 x83 + 99458 x84
       + 101371 x85 + 94802 x86 + 107720 x87 + 90163 x88 + 94264 x89
       + 92892 x90 + 100047 x91 + 103673 x92 + 107585 x93 + 92712 x94
       + 90848 x95 + 90408 x96 + 108664 x97 + 94534 x98 + 94864 x99
       + 105673 x100 + 101064 x101 + 99965 x102 + 109557 x103 + 97053 x104
       + 94637 x105 + 103273 x106 + 103258 x107 + 90033 x108 + 98122 x109
       + 97497 x110 + 106210 x111 + 99154 x112 + 96875 x113 + 106716 x114
       + 99697 x115 + 102780 x116 + 102418 x117 + 94441 x118 + 102826 x119
       + 91013 x120 + 108328 x121 + 97103 x122 + 93589 x123 + 100229 x124
       + 105168 x125 + 91949 x126 + 104739 x127 + 107091 x128 + 106055 x129
       + 97274 x130 + 92934 x131 + 92220 x132 + 95695 x133 + 94823 x134
       + 104744 x135 + 108791 x136 + 99094 x137 + 103455 x138 + 97099 x139
       + 106719 x140 + 106891 x141 + 102418 x142 + 92868 x143 + 101555 x144
       + 92922 x145 + 101788 x146 + 97488 x147 + 90834 x148 + 107413 x149
       + 96615 x150 + 92287 x151 + 100146 x152 + 106324 x153 + 101650 x154
       + 104986 x155 + 101818 x156 + 94957 x157 + 109465 x158 + 93342 x159
       + 105376 x160 + 102312 x161 + 106403 x162 + 104046 x163 + 90848 x164
       + 101559 x165 + 97944 x166 + 105683 x167 + 103478 x168 + 91565 x169
       + 97964 x170 + 101967 x171 + 91597 x172 + 94579 x173 + 104769 x174
       + 109407 x175 + 108114 x176 + 105988 x177 + 100911 x178 + 92222 x179
       + 90547 x180 + 104475 x181 + 104955 x182 + 96826 x183 + 95637 x184
       + 100987 x185 + 107398 x186 + 90926 x187 + 99043 x188 + 99927 x189
       + 101812 x190 + 104577 x191 + 108267 x192 + 107668 x193 + 103765 x194
       + 95573 x195 + 105120 x196 + 90648 x197 + 103230 x198 + 107238 x199
       + 109790 x200 + 94043 x201 + 102783 x202 + 94462 x203 + 109401 x204
       + 98726 x205 + 98974 x206 + 91357 x207 + 91243 x208 + 109071 x209
       + 98097 x210 + 97408 x211 + 109090 x212 + 99148 x213 + 104672 x214
       + 109274 x215 + 105941 x216 + 95524 x217 + 108585 x218 + 101405 x219
       + 101939 x220 + 101157 x221 + 105166 x222 + 100183 x223 + 92395 x224
       + 106743 x225 + 91401 x226 + 103516 x227 + 107546 x228 + 93412 x229
       + 91012 x230 + 90657 x231 + 103058 x232 + 103817 x233 + 91336 x234
       + 105452 x235 + 98263 x236 + 107412 x237 + 105719 x238 + 100327 x239
       + 97736 x240 + 101061 x241 + 98638 x242 + 106294 x243 + 103418 x244
       + 105486 x245 + 105176 x246 + 95918 x247 + 98702 x248 + 96668 x249
       + 109864 x250 + 104683 x251 + 101854 x252 + 103823 x253 + 104764 x254
       + 97598 x255 + 100430 x256 + 107311 x257 + 106088 x258 + 102678 x259
       + 90627 x260 + 109084 x261 + 99294 x262 + 94667 x263 + 94976 x264
       + 109391 x265 + 95539 x266 + 97868 x267 + 101137 x268 + 96746 x269
       + 107321 x270 + 107148 x271 + 98944 x272 + 92421 x273 + 96216 x274
       + 103214 x275 + 93205 x276 + 95562 x277 + 106206 x278 + 95941 x279
       + 95707 x280 + 90552 x281 + 92405 x282 + 107831 x283 + 91462 x284
       + 104313 x285 + 106858 x286 + 108616 x287 + 91433 x288 + 98017 x289
       + 90630 x290 + 91549 x291 + 106817 x292 + 105020 x293 + 104513 x294
       + 102136 x295 + 108417 x296 + 104817 x297 + 109497 x298 + 90825 x299
       + 115771 x300 + 197628 x301 + 212120 x302 + 217032 x303 + 202654 x304
       + 203595 x305 + 185742 x306 + 216664 x307 + 185449 x308 + 199321 x309
       + 181846 x310 + 211499 x311 + 187955 x312 + 194114 x313 + 212006 x314
       + 201731 x315 + 182512 x316 + 200272 x317 + 207224 x318 + 185388 x319
       + 205018 x320 + 210345 x321 + 193417 x322 + 190758 x323 + 196955 x324
       + 194914 x325 + 198027 x326 + 187650 x327 + 199065 x328 + 194259 x329
       + 211696 x330 + 187285 x331 + 205642 x332 + 198557 x333 + 219951 x334
       + 203771 x335 + 206285 x336 + 186320 x337 + 194565 x338 + 187018 x339
       + 203524 x340 + 219526 x341 + 192721 x342 + 187639 x343 + 180118 x344
       + 196485 x345 + 194353 x346 + 198768 x347 + 218902 x348 + 219747 x349
       + 213999 x350 + 217915 x351 + 210922 x352 + 186381 x353 + 193244 x354
       + 203878 x355 + 184195 x356 + 191778 x357 + 213282 x358 + 209391 x359
       + 206982 x360
Subject To
 c1:   x2 - x8 + x14 + x23 - x35 + x42 + x58  = 0
 c2:   x62 - x68 + x74 + x83 - x95 + x102 + x118  = 0
 c3:   x122 - x128 + x134 + x143 - x155 + x162 + x178  = 0
 c4:   x182 - x188 + x194 + x203 - x215 + x222 + x238  = 0
 c5:   x242 - x248 + x254 + x263 - x275 + x282 + x298  = 0
 c6:   - x4 - x14 + x17 + x21 + x31 + x44 - x56  = 0
 c7:   - x64 - x74 + x77 + x81 + x91 + x104 - x116  = 0
 c8:   - x124 - x134 + x137 + x141 + x151 + x164 - x176  = 0
 c9:   - x184 - x194 + x197 + x201 + x211 + x224 - x236  = 0
 c10:  - x244 - x254 + x257 + x261 + x271 + x284 - x296  = 0
 c11:  x3 - x5 - x15 + x16 + x22 - x25 - x34 + x38 + x53  = 0
 c12:  x63 - x65 - x75 + x76 + x82 - x85 - x94 + x98 + x113  = 0
 c13:  x123 - x125 - x135 + x136 + x142 - x145 - x154 + x158 + x173  = 0
 c14:  x183 - x185 - x195 + x196 + x202 - x205 - x214 + x218 + x233  = 1
 c15:  x243 - x245 - x255 + x256 + x262 - x265 - x274 + x278 + x293  = 0
 c16:  - x9 + x28 + x30 + x35 - x36 + x40  = 0
 c17:  - x69 + x88 + x90 + x95 - x96 + x100  = 0
 c18:  - x129 + x148 + x150 + x155 - x156 + x160  = 0
 c19:  - x189 + x208 + x210 + x215 - x216 + x220  = 0
 c20:  - x249 + x268 + x270 + x275 - x276 + x280  = 0
 c21:  - x7 + x13 - x20 - x30 - x31 + x41 - x50 - x52 - x53 - x60  = 0
 c22:  - x67 + x73 - x80 - x90 - x91 + x101 - x110 - x112 - x113 - x120  = -1
 c23:  - x127 + x133 - x140 - x150 - x151 + x161 - x170 - x172 - x173 - x180
        = -1
 c24:  - x187 + x193 - x200 - x210 - x211 + x221 - x230 - x232 - x233 - x240
        = 0
 c25:  - x247 + x253 - x260 - x270 - x271 + x281 - x290 - x292 - x293 - x300
        = 0
 c26:  - x16 + x18 + x27 - x44 + x50 + x51 + x54  = -1
 c27:  - x76 + x78 + x87 - x104 + x110 + x111 + x114  = 0
 c28:  - x136 + x138 + x147 - x164 + x170 + x171 + x174  = 0
 c29:  - x196 + x198 + x207 - x224 + x230 + x231 + x234  = 0
 c30:  - x256 + x258 + x267 - x284 + x290 + x291 + x294  = 0
 c31:  - x3 - x10 + x19 + x46  = 0
 c32:  - x63 - x70 + x79 + x106  = 0
 c33:  - x123 - x130 + x139 + x166  = 0
 c34:  - x183 - x190 + x199 + x226  = 0
 c35:  - x243 - x250 + x259 + x286  = -1
 c36:  x10 - x17 + x37 + x49 + x52 + x57 - x58  = 0
 c37:  x70 - x77 + x97 + x109 + x112 + x117 - x118  = 0
 c38:  x130 - x137 + x157 + x169 + x172 + x177 - x178  = 0
 c39:  x190 - x197 + x217 + x229 + x232 + x237 - x238  = 0
 c40:  x250 - x257 + x277 + x289 + x292 + x297 - x298  = 0
 c41:  - x2 + x9 + x25 - x27 - x28 - x32 - x37 - x38 - x59  = 0
 c42:  - x62 + x69 + x85 - x87 - x88 - x92 - x97 - x98 - x119  = 0
 c43:  - x122 + x129 + x145 - x147 - x148 - x152 - x157 - x158 - x179  = 0
 c44:  - x182 + x189 + x205 - x207 - x208 - x212 - x217 - x218 - x239  = 0
 c45:  - x242 + x249 + x265 - x267 - x268 - x272 - x277 - x278 - x299  = 0
 c46:  x8 - x12 - x18 - x23 - x24 - x26 + x32 - x40 + x45  = 1
 c47:  x68 - x72 - x78 - x83 - x84 - x86 + x92 - x100 + x105  = 0
 c48:  x128 - x132 - x138 - x143 - x144 - x146 + x152 - x160 + x165  = 0
 c49:  x188 - x192 - x198 - x203 - x204 - x206 + x212 - x220 + x225  = 0
 c50:  x248 - x252 - x258 - x263 - x264 - x266 + x272 - x280 + x285  = 0
 c51:  x6 + x20 - x21 - x22 + x26 + x29 - x39 - x45 - x51  = 0
 c52:  x66 + x80 - x81 - x82 + x86 + x89 - x99 - x105 - x111  = 0
 c53:  x126 + x140 - x141 - x142 + x146 + x149 - x159 - x165 - x171  = 0
 c54:  x186 + x200 - x201 - x202 + x206 + x209 - x219 - x225 - x231  = 0
 c55:  x246 + x260 - x261 - x262 + x266 + x269 - x279 - x285 - x291  = 0
 c56:  x4 - x11 - x19 - x29 + x34 + x43 - x47 + x48  = 0
 c57:  x64 - x71 - x79 - x89 + x94 + x103 - x107 + x108  = 0
 c58:  x124 - x131 - x139 - x149 + x154 + x163 - x167 + x168  = 0
 c59:  x184 - x191 - x199 - x209 + x214 + x223 - x227 + x228  = 0
 c60:  x244 - x251 - x259 - x269 + x274 + x283 - x287 + x288  = 0
 c61:  x5 + x7 - x13 + x24 - x42 - x49 - x55  = 0
 c62:  x65 + x67 - x73 + x84 - x102 - x109 - x115  = 0
 c63:  x125 + x127 - x133 + x144 - x162 - x169 - x175  = 0
 c64:  x185 + x187 - x193 + x204 - x222 - x229 - x235  = -1
 c65:  x245 + x247 - x253 + x264 - x282 - x289 - x295  = 1
 c66:  - x1 + x11 + x12 + x33 + x36 + x39 - x43 - x46 + x55 + x59 + x60  = 0
 c67:  - x61 + x71 + x72 + x93 + x96 + x99 - x103 - x106 + x115 + x119 + x120
        = 0
 c68:  - x121 + x131 + x132 + x153 + x156 + x159 - x163 - x166 + x175 + x179
       + x180  = 1
 c69:  - x181 + x191 + x192 + x213 + x216 + x219 - x223 - x226 + x235 + x239
       + x240  = 0
 c70:  - x241 + x251 + x252 + x273 + x276 + x279 - x283 - x286 + x295 + x299
       + x300  = 0
 c71:  x1 - x6 + x15 - x33 - x41 + x47 - x48 - x54 + x56 - x57  = 0
 c72:  x61 - x66 + x75 - x93 - x101 + x107 - x108 - x114 + x116 - x117  = 1
 c73:  x121 - x126 + x135 - x153 - x161 + x167 - x168 - x174 + x176 - x177  = 0
 c74:  x181 - x186 + x195 - x213 - x221 + x227 - x228 - x234 + x236 - x237  = 0
 c75:  x241 - x246 + x255 - x273 - x281 + x287 - x288 - x294 + x296 - x297  = 0
 c76:  4 x1 + 4 x61 + 4 x121 + 4 x181 + 4 x241 - 2 x301 <= 0
 c77:  4 x2 + 4 x62 + 4 x122 + 4 x182 + 4 x242 - 2 x302 <= 0
 c78:  4 x3 + 4 x63 + 4 x123 + 4 x183 + 4 x243 - 2 x303 <= 0
 c79:  4 x4 + 4 x64 + 4 x124 + 4 x184 + 4 x244 - 2 x304 <= 0
 c80:  4 x5 + 4 x65 + 4 x125 + 4 x185 + 4 x245 - 2 x305 <= 0
 c81:  4 x6 + 4 x66 + 4 x126 + 4 x186 + 4 x246 - 2 x306 <= 0
 c82:  4 x7 + 4 x67 + 4 x127 + 4 x187 + 4 x247 - 2 x307 <= 0
 c83:  4 x8 + 4 x68 + 4 x128 + 4 x188 + 4 x248 - 2 x308 <= 0
 c84:  4 x9 + 4 x69 + 4 x129 + 4 x189 + 4 x249 - 2 x309 <= 0
 c85:  4 x10 + 4 x70 + 4 x130 + 4 x190 + 4 x250 - 2 x310 <= 0
 c86:  4 x11 + 4 x71 + 4 x131 + 4 x191 + 4 x251 - 2 x311 <= 0
 c87:  4 x12 + 4 x72 + 4 x132 + 4 x192 + 4 x252 - 2 x312 <= 0
 c88:  4 x13 + 4 x73 + 4 x133 + 4 x193 + 4 x253 - 2 x313 <= 0
 c89:  4 x14 + 4 x74 + 4 x134 + 4 x194 + 4 x254 - 2 x314 <= 0
 c90:  4 x15 + 4 x75 + 4 x135 + 4 x195 + 4 x255 - 2 x315 <= 0
 c91:  4 x16 + 4 x76 + 4 x136 + 4 x196 + 4 x256 - 2 x316 <= 0
 c92:  4 x17 + 4 x77 + 4 x137 + 4 x197 + 4 x257 - 2 x317 <= 0
 c93:  4 x18 + 4 x78 + 4 x138 + 4 x198 + 4 x258 - 2 x318 <= 0
 c94:  4 x19 + 4 x79 + 4 x139 + 4 x199 + 4 x259 - 2 x319 <= 0
 c95:  4 x20 + 4 x80 + 4 x140 + 4 x200 + 4 x260 - 2 x320 <= 0
 c96:  4 x21 + 4 x81 + 4 x141 + 4 x201 + 4 x261 - 2 x321 <= 0
 c97:  4 x22 + 4 x82 + 4 x142 + 4 x202 + 4 x262 - 2 x322 <= 0
 c98:  4 x23 + 4 x83 + 4 x143 + 4 x203 + 4 x263 - 2 x323 <= 0
 c99:  4 x24 + 4 x84 + 4 x144 + 4 x204 + 4 x264 - 2 x324 <= 0
 c100: 4 x25 + 4 x85 + 4 x145 + 4 x205 + 4 x265 - 2 x325 <= 0
 c101: 4 x26 + 4 x86 + 4 x146 + 4 x206 + 4 x266 - 2 x326 <= 0
 c102: 4 x27 + 4 x87 + 4 x147 + 4 x207 + 4 x267 - 2 x327 <= 0
 c103: 4 x28 + 4 x88 + 4 x148 + 4 x208 + 4 x268 - 2 x328 <= 0
 c104: 4 x29 + 4 x89 + 4 x149 + 4 x209 + 4 x269 - 2 x329 <= 0
 c105: 4 x30 + 4 x90 + 4 x150 + 4 x210 + 4 x270 - 2 x330 <= 0
 c106: 4 x31 + 4 x91 + 4 x151 + 4 x211 + 4 x271 - 2 x331 <= 0
 c107: 4 x32 + 4 x92 + 4 x152 + 4 x212 + 4 x272 - 2 x332 <= 0
 c108: 4 x33 + 4 x93 + 4 x153 + 4 x213 + 4 x273 - 2 x333 <= 0
 c109: 4 x34 + 4 x94 + 4 x154 + 4 x214 + 4 x274 - 2 x334 <= 0
 c110: 4 x35 + 4 x95 + 4 x155 + 4 x215 + 4 x275 - 2 x335 <= 0
 c111: 4 x36 + 4 x96 + 4 x156 + 4 x216 + 4 x276 - 2 x336 <= 0
 c112: 4 x37 + 4 x97 + 4 x157 + 4 x217 + 4 x277 - 2 x337 <= 0
 c113: 4 x38 + 4 x98 + 4 x158 + 4 x218 + 4 x278 - 2 x338 <= 0
 c114: 4 x39 + 4 x99 + 4 x159 + 4 x219 + 4 x279 - 2 x339 <= 0
 c115: 4 x40 + 4 x100 + 4 x160 + 4 x220 + 4 x280 - 2 x340 <= 0
 c116: 4 x41 + 4 x101 + 4 x161 + 4 x221 + 4 x281 - 2 x341 <= 0
 c117: 4 x42 + 4 x102 + 4 x162 + 4 x222 + 4 x282 - 2 x342 <= 0
 c118: 4 x43 + 4 x103 + 4 x163 + 4 x223 + 4 x283 - 2 x343 <= 0
 c119: 4 x44 + 4 x104 + 4 x164 + 4 x224 + 4 x284 - 2 x344 <= 0
 c120: 4 x45 + 4 x105 + 4 x165 + 4 x225 + 4 x285 - 2 x345 <= 0
 c121: 4 x46 + 4 x106 + 4 x166 + 4 x226 + 4 x286 - 2 x346 <= 0
 c122: 4 x47 + 4 x107 + 4 x167 + 4 x227 + 4 x287 - 2 x347 <= 0
 c123: 4 x48 + 4 x108 + 4 x168 + 4 x228 + 4 x288 - 2 x348 <= 0
 c124: 4 x49 + 4 x109 + 4 x169 + 4 x229 + 4 x289 - 2 x349 <= 0
 c125: 4 x50 + 4 x110 + 4 x170 + 4 x230 + 4 x290 - 2 x350 <= 0
 c126: 4 x51 + 4 x111 + 4 x171 + 4 x231 + 4 x291 - 2 x351 <= 0
 c127: 4 x52 + 4 x112 + 4 x172 + 4 x232 + 4 x292 - 2 x352 <= 0
 c128: 4 x53 + 4 x113 + 4 x173 + 4 x233 + 4 x293 - 2 x353 <= 0
 c129: 4 x54 + 4 x114 + 4 x174 + 4 x234 + 4 x294 - 2 x354 <= 0
 c130: 4 x55 + 4 x115 + 4 x175 + 4 x235 + 4 x295 - 2 x355 <= 0
 c131: 4 x56 + 4 x116 + 4 x176 + 4 x236 + 4 x296 - 2 x356 <= 0
 c132: 4 x57 + 4 x117 + 4 x177 + 4 x237 + 4 x297 - 2 x357 <= 0
 c133: 4 x58 + 4 x118 + 4 x178 + 4 x238 + 4 x298 - 2 x358 <= 0
 c134: 4 x59 + 4 x119 + 4 x179 + 4 x239 + 4 x299 - 2 x359 <= 0
 c135: 4 x60 + 4 x120 + 4 x180 + 4 x240 + 4 x300 - 2 x360 <= 0
Bounds
 0 <= x1 <= 1
 0 <= x2 <= 1
 0 <= x3 <= 1
 0 <= x4 <= 1
 0 <= x5 <= 1
 0 <= x6 <= 1
 0 <= x7 <= 1
 0 <= x8 <= 1
 0 <= x9 <= 1
 0 <= x10 <= 1
 0 <= x11 <= 1
 0 <= x12 <= 1
 0 <= x13 <= 1
 0 <= x14 <= 1
 0 <= x15 <= 1
 0 <= x16 <= 1
 0 <= x17 <= 1
 0 <= x18 <= 1
 0 <= x19 <= 1
 0 <= x20 <= 1
 0 <= x21 <= 1
 0 <= x22 <= 1
 0 <= x23 <= 1
 0 <= x24 <= 1
 0 <= x25 <= 1
 0 <= x26 <= 1
 0 <= x27 <= 1
 0 <= x28 <= 1
 0 <= x29 <= 1
 0 <= x30 <= 1
 0 <= x31 <= 1
 0 <= x32 <= 1
 0 <= x33 <= 1
 0 <= x34 <= 1
 0 <= x35 <= 1
 0 <= x36 <= 1
 0 <= x37 <= 1
 0 <= x38 <= 1
 0 <= x39 <= 1
 0 <= x40 <= 1
 0 <= x41 <= 1
 0 <= x42 <= 1
 0 <= x43 <= 1
 0 <= x44 <= 1
 0 <= x45 <= 1
 0 <= x46 <= 1
 0 <= x47 <= 1
 0 <= x48 <= 1
 0 <= x49 <= 1
 0 <= x50 <= 1
 0 <= x51 <= 1
 0 <= x52 <= 1
 0 <= x53 <= 1
 0 <= x54 <= 1
 0 <= x55 <= 1
 0 <= x56 <= 1
 0 <= x57 <= 1
 0 <= x58 <= 1
 0 <= x59 <= 1
 0 <= x60 <= 1
 0 <= x61 <= 1
 0 <= x62 <= 1
 0 <= x63 <= 1
 0 <= x64 <= 1
 0 <= x65 <= 1
 0 <= x66 <= 1
 0 <= x67 <= 1
 0 <= x68 <= 1
 0 <= x69 <= 1
 0 <= x70 <= 1
 0 <= x71 <= 1
 0 <= x72 <= 1
 0 <= x73 <= 1
 0 <= x74 <= 1
 0 <= x75 <= 1
 0 <= x76 <= 1
 0 <= x77 <= 1
 0 <= x78 <= 1
 0 <= x79 <= 1
 0 <= x80 <= 1
 0 <= x81 <= 1
 0 <= x82 <= 1
 0 <= x83 <= 1
 0 <= x84 <= 1
 0 <= x85 <= 1
 0 <= x86 <= 1
 0 <= x87 <= 1
 0 <= x88 <= 1
 0 <= x89 <= 1
 0 <= x90 <= 1
 0 <= x91 <= 1
 0 <= x92 <= 1
 0 <= x93 <= 1
 0 <= x94 <= 1
 0 <= x95 <= 1
 0 <= x96 <= 1
 0 <= x97 <= 1
 0 <= x98 <= 1
 0 <= x99 <= 1
 0 <= x100 <= 1
 0 <= x101 <= 1
 0 <= x102 <= 1
 0 <= x103 <= 1
 0 <= x104 <= 1
 0 <= x105 <= 1
 0 <= x106 <= 1
 0 <= x107 <= 1
 0 <= x108 <= 1
 0 <= x109 <= 1
 0 <= x110 <= 1
 0 <= x111 <= 1
 0 <= x112 <= 1
 0 <= x113 <= 1
 0 <= x114 <= 1
 0 <= x115 <= 1
 0 <= x116 <= 1
 0 <= x117 <= 1
 0 <= x118 <= 1
 0 <= x119 <= 1
 0 <= x120 <= 1
 0 <= x121 <= 1
 0 <= x122 <= 1
 0 <= x123 <= 1
 0 <= x124 <= 1
 0 <= x125 <= 1
 0 <= x126 <= 1
 0 <= x127 <= 1
 0 <= x128 <= 1
 0 <= x129 <= 1
 0 <= x130 <= 1
 0 <= x131 <= 1
 0 <= x132 <= 1
 0 <= x133 <= 1
 0 <= x134 <= 1
 0 <= x135 <= 1
 0 <= x136 <= 1
 0 <= x137 <= 1
 0 <= x138 <= 1
 0 <= x139 <= 1
 0 <= x140 <= 1
 0 <= x141 <= 1
 0 <= x142 <= 1
 0 <= x143 <= 1
 0 <= x144 <= 1
 0 <= x145 <= 1
 0 <= x146 <= 1
 0 <= x147 <= 1
 0 <= x148 <= 1
 0 <= x149 <= 1
 0 <= x150 <= 1
 0 <= x151 <= 1
 0 <= x152 <= 1
 0 <= x153 <= 1
 0 <= x154 <= 1
 0 <= x155 <= 1
 0 <= x156 <= 1
 0 <= x157 <= 1
 0 <= x158 <= 1
 0 <= x159 <= 1
 0 <= x160 <= 1
 0 <= x161 <= 1
 0 <= x162 <= 1
 0 <= x163 <= 1
 0 <= x164 <= 1
 0 <= x165 <= 1
 0 <= x166 <= 1
 0 <= x167 <= 1
 0 <= x168 <= 1
 0 <= x169 <= 1
 0 <= x170 <= 1
 0 <= x171 <= 1
 0 <= x172 <= 1
 0 <= x173 <= 1
 0 <= x174 <= 1
 0 <= x175 <= 1
 0 <= x176 <= 1
 0 <= x177 <= 1
 0 <= x178 <= 1
 0 <= x179 <= 1
 0 <= x180 <= 1
 0 <= x181 <= 1
 0 <= x182 <= 1
 0 <= x183 <= 1
 0 <= x184 <= 1
 0 <= x185 <= 1
 0 <= x186 <= 1
 0 <= x187 <= 1
 0 <= x188 <= 1
 0 <= x189 <= 1
 0 <= x190 <= 1
 0 <= x191 <= 1
 0 <= x192 <= 1
 0 <= x193 <= 1
 0 <= x194 <= 1
 0 <= x195 <= 1
 0 <= x196 <= 1
 0 <= x197 <= 1
 0 <= x198 <= 1
 0 <= x199 <= 1
 0 <= x200 <= 1
 0 <= x201 <= 1
 0 <= x202 <= 1
 0 <= x203 <= 1
 0 <= x204 <= 1
 0 <= x205 <= 1
 0 <= x206 <= 1
 0 <= x207 <= 1
 0 <= x208 <= 1
 0 <= x209 <= 1
 0 <= x210 <= 1
 0 <= x211 <= 1
 0 <= x212 <= 1
 0 <= x213 <= 1
 0 <= x214 <= 1
 0 <= x215 <= 1
 0 <= x216 <= 1
 0 <= x217 <= 1
 0 <= x218 <= 1
 0 <= x219 <= 1
 0 <= x220 <= 1
 0 <= x221 <= 1
 0 <= x222 <= 1
 0 <= x223 <= 1
 0 <= x224 <= 1
 0 <= x225 <= 1
 0 <= x226 <= 1
 0 <= x227 <= 1
 0 <= x228 <= 1
 0 <= x229 <= 1
 0 <= x230 <= 1
 0 <= x231 <= 1
 0 <= x232 <= 1
 0 <= x233 <= 1
 0 <= x234 <= 1
 0 <= x235 <= 1
 0 <= x236 <= 1
 0 <= x237 <= 1
 0 <= x238 <= 1
 0 <= x239 <= 1
 0 <= x240 <= 1
 0 <= x241 <= 1
 0 <= x242 <= 1
 0 <= x243 <= 1
 0 <= x244 <= 1
 0 <= x245 <= 1
 0 <= x246 <= 1
 0 <= x247 <= 1
 0 <= x248 <= 1
 0 <= x249 <= 1
 0 <= x250 <= 1
 0 <= x251 <= 1
 0 <= x252 <= 1
 0 <= x253 <= 1
 0 <= x254 <= 1
 0 <= x255 <= 1
 0 <= x256 <= 1
 0 <= x257 <= 1
 0 <= x258 <= 1
 0 <= x259 <= 1
 0 <= x260 <= 1
 0 <= x261 <= 1
 0 <= x262 <= 1
 0 <= x263 <= 1
 0 <= x264 <= 1
 0 <= x265 <= 1
 0 <= x266 <= 1
 0 <= x267 <= 1
 0 <= x268 <= 1
 0 <= x269 <= 1
 0 <= x270 <= 1
 0 <= x271 <= 1
 0 <= x272 <= 1
 0 <= x273 <= 1
 0 <= x274 <= 1
 0 <= x275 <= 1
 0 <= x276 <= 1
 0 <= x277 <= 1
 0 <= x278 <= 1
 0 <= x279 <= 1
 0 <= x280 <= 1
 0 <= x281 <= 1
 0 <= x282 <= 1
 0 <= x283 <= 1
 0 <= x284 <= 1
 0 <= x285 <= 1
 0 <= x286 <= 1
 0 <= x287 <= 1
 0 <= x288 <= 1
 0 <= x289 <= 1
 0 <= x290 <= 1
 0 <= x291 <= 1
 0 <= x292 <= 1
 0 <= x293 <= 1
 0 <= x294 <= 1
 0 <= x295 <= 1
 0 <= x296 <= 1
 0 <= x297 <= 1
 0 <= x298 <= 1
 0 <= x299 <= 1
 0 <= x300 <= 1
 0 <= x301 <= 1
 0 <= x302 <= 1
 0 <= x303 <= 1
 0 <= x304 <= 1
 0 <= x305 <= 1
 0 <= x306 <= 1
 0 <= x307 <= 1
 0 <= x308 <= 1
 0 <= x309 <= 1
 0 <= x310 <= 1
 0 <= x311 <= 1
 0 <= x312 <= 1
 0 <= x313 <= 1
 0 <= x314 <= 1
 0 <= x315 <= 1
 0 <= x316 <= 1
 0 <= x317 <= 1
 0 <= x318 <= 1
 0 <= x319 <= 1
 0 <= x320 <= 1
 0 <= x321 <= 1
 0 <= x322 <= 1
 0 <= x323 <= 1
 0 <= x324 <= 1
 0 <= x325 <= 1
 0 <= x326 <= 1
 0 <= x327 <= 1
 0 <= x328 <= 1
 0 <= x329 <= 1
 0 <= x330 <= 1
 0 <= x331 <= 1
 0 <= x332 <= 1
 0 <= x333 <= 1
 0 <= x334 <= 1
 0 <= x335 <= 1
 0 <= x336 <= 1
 0 <= x337 <= 1
 0 <= x338 <= 1
 0 <= x339 <= 1
 0 <= x340 <= 1
 0 <= x341 <= 1
 0 <= x342 <= 1
 0 <= x343 <= 1
 0 <= x344 <= 1
 0 <= x345 <= 1
 0 <= x346 <= 1
 0 <= x347 <= 1
 0 <= x348 <= 1
 0 <= x349 <= 1
 0 <= x350 <= 1
 0 <= x351 <= 1
 0 <= x352 <= 1
 0 <= x353 <= 1
 0 <= x354 <= 1
 0 <= x355 <= 1
 0 <= x356 <= 1
 0 <= x357 <= 1
 0 <= x358 <= 1
 0 <= x359 <= 1
 0 <= x360 <= 1
Binaries
 x301  x302  x303  x304  x305  x306  x307  x308  x309  x310  x311  x312  x313 
 x314  x315  x316  x317  x318  x319  x320  x321  x322  x323  x324  x325  x326 
 x327  x328  x329  x330  x331  x332  x333  x334  x335  x336  x337  x338  x339 
 x340  x341  x342  x343  x344  x345  x346  x347  x348  x349  x350  x351  x352 
 x353  x354  x355  x356  x357  x358  x359  x360 
End
